5 6 91
3 3 1 5 2 3 3 9 31 31 61 61 91 
4 5 1 1 1 1 2 1 3 3 21 21 39 39 71 71 91 
3 2 1 3 2 4 2 4 40 40 54 54 86 
3 4 1 2 2 2 3 10 38 41 57 57 91 
5 2 1 4 1 4 1 2 2 2 2 0 4 4 7 7 10 34 40 40 41 
10 5 1 3 1 3 1 1 1 1 1 5 2 3 2 4 2 4 2 3 3 0 3 3 7 7 9 9 12 12 15 21 27 31 33 37 38 38 44 54 59 
